c turning on binary mode checking
c parsing input formula with 259840 variables and 1039924 clauses
c finished parsing, read 23063619 bytes from proof file
c detected empty clause; start verification via backward checking
c 4624 of 1039924 clauses in core                            
c 5301 of 597337 lemmas in core using 24055 resolution steps
c 0 RAT lemmas in core; 176 redundant literals in core lemmas
s VERIFIED
c verification time: 2.555 seconds
